c 186_4_checker_5cl.cnf
c
c field = 186
c formula set type = 4_checker_5cl
c
p cnf 5 6
310 
340 
400 
430 
-280 
311 
341 
401 
431 
-281 
306 
338 
402 
434 
-274 
307 
339 
403 
435 
-275 
314 
342 
398 
426 
-286 
315 
343 
399 
427 
-287 
